Traveling Salesman Problem/TSP_generados/Aleatorio1620391909_16.tsp
NAME: Aleatorio1620391909_16.tsp
COMMENT: Randomly generated scenario
TYPE: TSP
DIMENSION: 16
EDGE_WEIGHT_TYPE: ATT
NODE_COORD_SECTION
1 30.47 39.76
2 42.34 22.64
3 20.43 45.24
4 17.08 20.96
5 19.64 45.79
6 10.51 8.03
7 0.94 24.89
8 3.15 34.64
9 42.98 32.59
10 37.44 32.18
11 33.85 28.12
12 12.1 39.76
13 15.78 7.55
14 43.93 30.59
15 27.53 14.99
16 46.27 27.3
