Traveling Salesman Problem/TSP_generados/Aleatorio1620391909_16.opt.tour
NAME: Aleatorio1620391909_16.opt.tour
COMMENT: Optimal solution for Aleatorio1620391909_16 (144.66226803638563)
TYPE: TOUR
DIMENSION: 16
TOUR_SECTION
1 11 10 9 14 16 2 15 4 13 6 7 8 12 5 3
-1
EOF
